; benchmark generated from python API
(set-info :status unknown)
(declare-datatypes ((IntState 0)) (((Mk1 (val1 Int)) (Mk2 (val2 Int)))))
 (declare-fun c_main_~i~6 () Int)
(declare-fun c_main_~j~6 () Int)
(declare-fun c_main_~k~6 () Int)
(assert
 (let (($x115 (<= c_main_~j~6 (* 2 c_main_~i~6))))
 (let (($x179 (exists ((main_~i~6_st IntState) (val!136 Int) )(let ((?x56 (val2 main_~i~6_st)))
 (let (($x37 (<= ?x56 1)))
 (let (($x52 (not (= main_~i~6_st (Mk1 val!136)))))
 (and $x52 (and (<= c_main_~j~6 (* 2 ?x56)) $x37 (<= ?x56 c_main_~k~6)))))))
 ))
 (let (($x103 (<= c_main_~i~6 1)))
 (let (($x57 (and (<= c_main_~i~6 c_main_~k~6) $x115 $x103)))
 (and $x57 (not (and $x103 $x179 $x115))))))))
(check-sat)
